s 1
v 1 -2 1768515943 926365492 -5 -757935410 7 1852730984 9 10 11 -1515870820 1936946025 14 252645123 -16 -1431655779 18 1179010615 336860164 -21 -22 2105376107 1263225656 421075205 -421075246 -27 -2105376148 29 505290246 -336860205 -1179010656 -2021161107 -34 35 -252645164 -37 38 1515870779 673720328 -168430123 -1010580574 -43 -44 757935369 46 -47 -1768515984 1684300861 50 
t 2ms